Version identifier: 22.1.1.0 | 2022-11-28 | 9160aff4d
CPXPARAM_Read_DataCheck                          1
CPXPARAM_MIP_Cuts_Covers                         1
CPXPARAM_MIP_Strategy_NodeSelect                 2
CPXPARAM_MIP_Cuts_FlowCovers                     1
CPXPARAM_MIP_Cuts_MIRCut                         1
CPXPARAM_MIP_Strategy_HeuristicFreq              5
CPXPARAM_TimeLimit                               194
Tried aggregator 2 times.
MIP Presolve eliminated 119 rows and 429 columns.
MIP Presolve added 28 rows and 0 columns.
MIP Presolve modified 13373 coefficients.
Aggregator did 5 substitutions.
Reduced MIP has 2644 rows, 3520 columns, and 19038 nonzeros.
Reduced MIP has 3471 binaries, 0 generals, 0 SOSs, and 0 indicators.
Presolve time = 0.02 sec. (24.60 ticks)
Found incumbent of value 1430.000000 after 0.04 sec. (51.51 ticks)
Probing time = 0.01 sec. (4.62 ticks)
Tried aggregator 1 time.
Detecting symmetries...
Reduced MIP has 2644 rows, 3520 columns, and 19038 nonzeros.
Reduced MIP has 3471 binaries, 0 generals, 0 SOSs, and 0 indicators.
Presolve time = 0.01 sec. (10.79 ticks)
Probing time = 0.01 sec. (4.51 ticks)
Clique table members: 11076.
MIP emphasis: balance optimality and feasibility.
MIP search method: dynamic search.
Parallel mode: deterministic, using up to 12 threads.
Root relaxation solution time = 0.02 sec. (21.84 ticks)

        Nodes                                         Cuts/
   Node  Left     Objective  IInf  Best Integer    Best Bound    ItCnt     Gap

*     0+    0                         1430.0000        0.0000           100.00%
      0     0      293.8281   101     1430.0000      293.8281      525   79.45%
*     0+    0                          926.0000      293.8281            68.27%
      0     0      315.8500    91      926.0000     Cuts: 127      647   65.89%
      0     0      317.1612    51      926.0000      Cuts: 75      736   65.75%
      0     0      319.1000    51      926.0000      Cuts: 41      879   65.54%
      0     0      319.6459    83      926.0000      Cuts: 63     1016   65.48%
      0     0      319.6580    90      926.0000     Cuts: 113     1068   65.48%
Detecting symmetries...
      0     0      319.6580    99      926.0000      Cuts: 20     1112   65.48%
*     0+    0                          462.0000      319.6580            30.81%
*     0+    0                          447.0000      319.6580            28.49%
      0     0  -1.00000e+75     0      447.0000      319.6580     1112   28.49%
Detecting symmetries...
      0     2      319.6580    88      447.0000      319.6580     1112   28.49%
Elapsed time = 0.59 sec. (628.92 ticks, tree = 0.02 MB, solutions = 4)
*     7+    5                          428.0000      319.6580            25.31%
*    10+    7                          409.0000      319.6580            21.84%
*    15+    8                          375.0000      319.6580            14.76%
*    31+    9                          372.0000      319.6580            14.07%
     42    39      355.0000    34      372.0000      319.6580     2864   14.07%
    301   215      355.7602    39      372.0000      319.6580    10686   14.07%
*   386   265      integral     0      363.0000      319.6580    12146   11.94%
*   656   337      integral     0      362.0000      319.6589    16399   11.70%
    915   578      320.0107    72      362.0000      319.6589    24915   11.70%
   1569  1143      325.7745    61      362.0000      319.6589    37763   11.70%
   2419  1896      346.4211    43      362.0000      319.6589    55408   11.70%
   3414  2706      321.7588    48      362.0000      319.6589    74128   11.70%
   4262  3639      323.0127    40      362.0000      319.6589    90625   11.70%

Performing restart 1

Repeating presolve.
Tried aggregator 1 time.
MIP Presolve eliminated 1465 rows and 1533 columns.
MIP Presolve modified 2305 coefficients.
Reduced MIP has 1179 rows, 1987 columns, and 9008 nonzeros.
Reduced MIP has 1938 binaries, 0 generals, 0 SOSs, and 0 indicators.
Presolve time = 0.01 sec. (8.02 ticks)
Tried aggregator 1 time.
MIP Presolve modified 802 coefficients.
Reduced MIP has 1179 rows, 1987 columns, and 9003 nonzeros.
Reduced MIP has 1938 binaries, 0 generals, 0 SOSs, and 0 indicators.
Presolve time = 0.01 sec. (7.34 ticks)
Represolve time = 0.04 sec. (43.63 ticks)
   4738     0      320.2575   107      362.0000     Cuts: 115   107585   11.53%
   4738     0      320.4585   102      362.0000      Cuts: 89   107711   11.48%
   4738     0      320.6073    94      362.0000      Cuts: 84   107891   11.43%
   4738     0      320.6073    92      362.0000      Cuts: 73   107963   11.43%
   4738     0      320.6747   107      362.0000      Cuts: 38   108086   11.42%
   4738     0      320.8102   104      362.0000     Cuts: 141   108213   11.38%
*  4738+    0                          359.0000      320.8102            10.64%
   4738     0      320.8162    99      359.0000      Cuts: 80   108305   10.64%
   4738     0      320.8572    54      359.0000      Cuts: 41   108389   10.62%
   4738     0      320.8820    98      359.0000      Cuts: 69   108474   10.62%
   4738     0      320.8823    87      359.0000     Cuts: 146   108522   10.62%
*  4738+    0                          354.0000      320.8823             9.36%
   4738     0  -1.00000e+75     0      354.0000      320.8823   108522    9.36%
   4738     0      320.8915   106      354.0000      Cuts: 39   108553    9.35%
   4738     0      320.8915   109      354.0000      Cuts: 20   108583    9.35%
   4738     0      320.9043   112      354.0000       Cuts: 9   108625    9.35%
   4738     0      320.9043   108      354.0000     Cuts: 167   108732    9.35%
   4738     0      320.9043   104      354.0000      Cuts: 49   108787    9.35%
*  4738+    0                          351.0000      320.9043             8.57%
   4738     2      320.9043   101      351.0000      320.9043   108787    8.57%
   4742     6      320.9102    89      351.0000      320.9153   109039    8.57%
   6525  1355      331.8850    65      351.0000      321.1497   150045    8.50%
Elapsed time = 7.17 sec. (6514.16 ticks, tree = 1.24 MB, solutions = 34)
  11177  5014      332.6105    68      351.0000      321.4047   228805    8.43%
* 15483  9047      integral     0      347.0000      321.4047   314697    7.38%
  19963 12445      336.4210    74      347.0000      321.5885   416810    7.32%
  24699 15858      339.5752    67      347.0000      321.5885   530668    7.32%
* 27636 17715      integral     0      343.0000      321.5885   591886    6.24%
* 28594+16121                          339.0000      321.5885             5.14%
  28603 16260        cutoff            339.0000      321.5885   635933    5.14%
  30702 12002      334.6000    48      339.0000      321.8700   718419    5.05%
* 32619 12340      integral     0      337.0000      321.8700   770277    4.49%
* 33576+ 9023                          336.0000      321.8700             4.21%
  33842  9008      333.1833    27      336.0000      321.8700   837746    4.21%
* 34648+ 7035                          334.0000      321.8700             3.63%
* 35459  4364      integral     0      333.0000      321.8700   871309    3.34%
  41543  3526    infeasible            333.0000      321.8700   932309    3.34%
  50306  3269      331.6000     8      333.0000      321.8700   991540    3.34%

Performing restart 2

Repeating presolve.
Tried aggregator 1 time.
MIP Presolve eliminated 33 rows and 588 columns.
MIP Presolve modified 918 coefficients.
Reduced MIP has 1146 rows, 1399 columns, and 10310 nonzeros.
Reduced MIP has 1350 binaries, 0 generals, 0 SOSs, and 0 indicators.
Presolve time = 0.01 sec. (7.51 ticks)
Tried aggregator 2 times.
MIP Presolve eliminated 0 rows and 2 columns.
MIP Presolve modified 199 coefficients.
Aggregator did 1 substitutions.
Reduced MIP has 1145 rows, 1396 columns, and 10286 nonzeros.
Reduced MIP has 1347 binaries, 0 generals, 0 SOSs, and 0 indicators.
Presolve time = 0.01 sec. (11.22 ticks)
Represolve time = 0.07 sec. (69.01 ticks)
  53422     0      320.9148   135      333.0000      Cuts: 81  1066754    3.34%
  53422     0      320.9222   123      333.0000      Cuts: 41  1066901    3.34%
  53422     0      320.9238   112      333.0000     Cuts: 122  1066994    3.34%
  53422     0      320.9238   116      333.0000      Cuts: 72  1067063    3.34%
  53422     0      320.9272   111      333.0000      Cuts: 15  1067109    3.34%
  53422     0      320.9272   118      333.0000     Cuts: 128  1067184    3.34%
  53422     0      320.9272   105      333.0000      Cuts: 32  1067217    3.34%
  53422     0      320.9272   106      333.0000     Cuts: 145  1067286    3.34%
  53422     0      320.9272    99      333.0000       Cuts: 8  1067305    3.34%
  53422     0      320.9272   101      333.0000      Cuts: 15  1067321    3.34%

Repeating presolve.
Tried aggregator 2 times.
MIP Presolve eliminated 33 rows and 26 columns.
MIP Presolve modified 8 coefficients.
Aggregator did 1 substitutions.
Reduced MIP has 1111 rows, 1369 columns, and 10129 nonzeros.
Reduced MIP has 1321 binaries, 0 generals, 0 SOSs, and 0 indicators.
Presolve time = 0.01 sec. (8.10 ticks)
Tried aggregator 1 time.
Reduced MIP has 1111 rows, 1369 columns, and 10129 nonzeros.
Reduced MIP has 1321 binaries, 0 generals, 0 SOSs, and 0 indicators.
Presolve time = 0.01 sec. (5.56 ticks)
Represolve time = 0.06 sec. (57.98 ticks)
  53422     0      320.9272   115      333.0000     Cuts: 182  1068071    3.26%
  53422     0      320.9272   105      333.0000      Cuts: 52  1068114    3.26%
  53422     0      320.9272   115      333.0000     Cuts: 167  1068198    3.26%
  53422     0      320.9272   109      333.0000      Cuts: 26  1068222    3.26%
  53422     0      320.9272   110      333.0000     Cuts: 129  1068260    3.26%
  53422     0      320.9272   117      333.0000      Cuts: 41  1068323    3.26%
  53422     0      320.9272   111      333.0000      Cuts: 42  1068359    3.26%
  53422     0      320.9272   110      333.0000      Cuts: 78  1068399    3.26%
  53422     2      320.9272    96      333.0000      322.1604  1068399    3.26%
Elapsed time = 21.85 sec. (18073.29 ticks, tree = 0.02 MB, solutions = 43)
  54061   261      329.7940    47      333.0000      322.1604  1088445    3.26%
  56018   562      331.1000    62      333.0000      322.1604  1148826    3.26%
  58229   411        cutoff            333.0000      322.1604  1227482    3.26%
  60651    22      329.8222    79      333.0000      326.0000  1307668    2.10%
  65517   237        cutoff            333.0000      327.5194  1373294    1.65%

GUB cover cuts applied:  6
Clique cuts applied:  46
Cover cuts applied:  107
Implied bound cuts applied:  11
Flow cuts applied:  11
Mixed integer rounding cuts applied:  197
Zero-half cuts applied:  40
Lift and project cuts applied:  31
Gomory fractional cuts applied:  35

Root node processing (before b&c):
  Real time             =    0.58 sec. (628.37 ticks)
Parallel b&c, 12 threads:
  Real time             =   27.55 sec. (22426.01 ticks)
  Sync time (average)   =    4.08 sec.
  Wait time (average)   =    0.02 sec.
                          ------------
Total (root+branch&cut) =   28.14 sec. (23054.38 ticks)
